Traveling Salesman Problem/TSP_generados/Aleatorio1621103394_13.tsp
NAME: Aleatorio1621103394_13.tsp
COMMENT: Randomly generated scenario
TYPE: TSP
DIMENSION: 13
EDGE_WEIGHT_TYPE: ATT
NODE_COORD_SECTION
1 34.73 44.05
2 17.81 39.88
3 30.54 31.53
4 2.97 20.34
5 6.07 25.75
6 35.76 15.33
7 45.09 35.25
8 17.95 26.19
9 21.6 49.84
10 44.55 36.64
11 26.42 32.27
12 46.78 24.24
13 32.16 5.72
