Traveling Salesman Problem/TSP_generados/Aleatorio1621103394_13.opt.tour
NAME: Aleatorio1621103394_13.opt.tour
COMMENT: Optimal solution for Aleatorio1621103394_13 (154.49505857068928)
TYPE: TOUR
DIMENSION: 13
TOUR_SECTION
1 9 2 11 3 8 5 4 13 6 12 7 10
-1
EOF
